c ind 10 112 114 116 118 120 122 124 126 13 0
c ind 182 204 206 208 210 212 214 216 218 220 0
c ind 222 224 226 228 230 232 234 251 253 255 0
c ind 257 259 261 263 265 267 269 271 273 275 0
c ind 277 279 281 298 30 300 302 304 306 308 0
c ind 31 310 312 314 316 318 320 322 324 326 0
c ind 328 33 35 37 39 41 43 45 47 49 0
c ind 5 51 53 55 57 59 6 61 71 74 0
c ind 75 78 9 0
p cnf 328 878
-1 -2 11 0
-1 2 282 0
-100 -101 103 0
-100 101 165 0
-101 102 0
-101 76 0
-102 -10 13 0
-102 -13 10 0
-103 -104 81 0
-103 104 127 0
-104 105 0
-104 125 0
-105 106 0
-105 123 0
-106 107 0
-106 121 0
-107 108 0
-107 119 0
-108 109 0
-108 117 0
-109 110 0
-109 115 0
-11 -12 14 0
-11 12 62 0
-110 111 0
-110 113 0
-111 -112 31 0
-111 -31 112 0
-113 -114 31 0
-113 -31 114 0
-115 -116 31 0
-115 -31 116 0
-117 -118 31 0
-117 -31 118 0
-119 -120 31 0
-119 -31 120 0
-12 -13 5 0
-12 -5 13 0
-121 -122 31 0
-121 -31 122 0
-123 -124 31 0
-123 -31 124 0
-125 -126 13 0
-125 -13 126 0
-127 128 0
-127 161 0
-128 129 0
-128 157 0
-129 130 0
-129 153 0
-130 131 0
-130 149 0
-131 132 0
-131 145 0
-132 133 0
-132 141 0
-133 134 0
-133 137 0
-134 -135 31 0
-134 -31 135 0
-135 -136 -31 0
-135 136 31 0
-136 -112 -13 0
-136 112 13 0
-137 -138 31 0
-137 -31 138 0
-138 -139 -140 0
-138 139 140 0
-139 -114 -31 0
-139 114 31 0
-14 15 0
-14 60 0
-140 112 31 0
-141 -142 31 0
-141 -31 142 0
-142 -143 -144 0
-142 143 144 0
-143 -116 -31 0
-143 116 31 0
-144 114 0
-144 140 0
-145 -146 31 0
-145 -31 146 0
-146 -147 -148 0
-146 147 148 0
-147 -118 -31 0
-147 118 31 0
-148 116 0
-148 144 0
-149 -150 31 0
-149 -31 150 0
-15 16 0
-15 58 0
-150 -151 -152 0
-150 151 152 0
-151 -120 -31 0
-151 120 31 0
-152 118 0
-152 148 0
-153 -154 31 0
-153 -31 154 0
-154 -155 -156 0
-154 155 156 0
-155 -122 -31 0
-155 122 31 0
-156 120 0
-156 152 0
-157 -158 31 0
-157 -31 158 0
-158 -159 -160 0
-158 159 160 0
-159 -124 -31 0
-159 124 31 0
-16 17 0
-16 56 0
-160 122 0
-160 156 0
-161 -13 162 0
-161 -162 13 0
-162 -163 -164 0
-162 163 164 0
-163 -126 -31 0
-163 126 31 0
-164 124 0
-164 160 0
-165 166 0
-165 179 0
-166 167 0
-166 178 0
-167 168 0
-167 177 0
-168 169 0
-168 176 0
-169 170 0
-169 175 0
-17 18 0
-17 54 0
-170 171 0
-170 174 0
-171 172 0
-171 173 0
-172 -112 31 0
-172 -31 112 0
-173 -114 31 0
-173 -31 114 0
-174 -116 31 0
-174 -31 116 0
-175 -118 31 0
-175 -31 118 0
-176 -120 31 0
-176 -31 120 0
-177 -122 31 0
-177 -31 122 0
-178 -124 31 0
-178 -31 124 0
-179 -126 13 0
-179 -13 126 0
-18 19 0
-18 52 0
-180 -181 14 0
-180 181 183 0
-181 -13 182 0
-181 -182 13 0
-183 -67 184 0
-183 67 235 0
-184 -80 14 0
-184 80 185 0
-185 -99 14 0
-185 99 186 0
-186 -101 187 0
-186 101 235 0
-187 -104 14 0
-187 104 188 0
-188 189 0
-188 233 0
-189 190 0
-189 231 0
-19 20 0
-19 50 0
-190 191 0
-190 229 0
-191 192 0
-191 227 0
-192 193 0
-192 225 0
-193 194 0
-193 223 0
-194 195 0
-194 221 0
-195 196 0
-195 219 0
-196 197 0
-196 217 0
-197 198 0
-197 215 0
-198 199 0
-198 213 0
-199 200 0
-199 211 0
-2 3 7 0
-20 21 0
-20 48 0
-200 201 0
-200 209 0
-201 202 0
-201 207 0
-202 203 0
-202 205 0
-203 -204 30 0
-203 -30 204 0
-205 -206 33 0
-205 -33 206 0
-207 -208 35 0
-207 -35 208 0
-209 -210 37 0
-209 -37 210 0
-21 22 0
-21 46 0
-211 -212 39 0
-211 -39 212 0
-213 -214 41 0
-213 -41 214 0
-215 -216 43 0
-215 -43 216 0
-217 -218 45 0
-217 -45 218 0
-219 -220 47 0
-219 -47 220 0
-22 23 0
-22 44 0
-221 -222 49 0
-221 -49 222 0
-223 -224 51 0
-223 -51 224 0
-225 -226 53 0
-225 -53 226 0
-227 -228 55 0
-227 -55 228 0
-229 -230 57 0
-229 -57 230 0
-23 24 0
-23 42 0
-231 -232 59 0
-231 -59 232 0
-233 -234 61 0
-233 -61 234 0
-235 236 0
-235 280 0
-236 237 0
-236 278 0
-237 238 0
-237 276 0
-238 239 0
-238 274 0
-239 240 0
-239 272 0
-24 25 0
-24 40 0
-240 241 0
-240 270 0
-241 242 0
-241 268 0
-242 243 0
-242 266 0
-243 244 0
-243 264 0
-244 245 0
-244 262 0
-245 246 0
-245 260 0
-246 247 0
-246 258 0
-247 248 0
-247 256 0
-248 249 0
-248 254 0
-249 250 0
-249 252 0
-25 26 0
-25 38 0
-250 -251 30 0
-250 -30 251 0
-252 -253 33 0
-252 -33 253 0
-254 -255 35 0
-254 -35 255 0
-256 -257 37 0
-256 -37 257 0
-258 -259 39 0
-258 -39 259 0
-26 27 0
-26 36 0
-260 -261 41 0
-260 -41 261 0
-262 -263 43 0
-262 -43 263 0
-264 -265 45 0
-264 -45 265 0
-266 -267 47 0
-266 -47 267 0
-268 -269 49 0
-268 -49 269 0
-27 28 0
-27 34 0
-270 -271 51 0
-270 -51 271 0
-272 -273 53 0
-272 -53 273 0
-274 -275 55 0
-274 -55 275 0
-276 -277 57 0
-276 -57 277 0
-278 -279 59 0
-278 -59 279 0
-28 29 0
-28 32 0
-280 -281 61 0
-280 -61 281 0
-282 283 0
-282 327 0
-283 284 0
-283 325 0
-284 285 0
-284 323 0
-285 286 0
-285 321 0
-286 287 0
-286 319 0
-287 288 0
-287 317 0
-288 289 0
-288 315 0
-289 290 0
-289 313 0
-29 -30 31 0
-29 -31 30 0
-290 291 0
-290 311 0
-291 292 0
-291 309 0
-292 293 0
-292 307 0
-293 294 0
-293 305 0
-294 295 0
-294 303 0
-295 296 0
-295 301 0
-296 297 0
-296 299 0
-297 -298 30 0
-297 -30 298 0
-299 -300 33 0
-299 -33 300 0
-3 -4 0
-301 -302 35 0
-301 -35 302 0
-303 -304 37 0
-303 -37 304 0
-305 -306 39 0
-305 -39 306 0
-307 -308 41 0
-307 -41 308 0
-309 -310 43 0
-309 -43 310 0
-31 0
-311 -312 45 0
-311 -45 312 0
-313 -314 47 0
-313 -47 314 0
-315 -316 49 0
-315 -49 316 0
-317 -318 51 0
-317 -51 318 0
-319 -320 53 0
-319 -53 320 0
-32 -31 33 0
-32 -33 31 0
-321 -322 55 0
-321 -55 322 0
-323 -324 57 0
-323 -57 324 0
-325 -326 59 0
-325 -59 326 0
-327 -328 61 0
-327 -61 328 0
-34 -31 35 0
-34 -35 31 0
-36 -31 37 0
-36 -37 31 0
-38 -31 39 0
-38 -39 31 0
-4 -5 6 0
-4 -6 5 0
-40 -31 41 0
-40 -41 31 0
-42 -31 43 0
-42 -43 31 0
-44 -31 45 0
-44 -45 31 0
-46 -31 47 0
-46 -47 31 0
-48 -31 49 0
-48 -49 31 0
-50 -31 51 0
-50 -51 31 0
-52 -31 53 0
-52 -53 31 0
-54 -31 55 0
-54 -55 31 0
-56 -31 57 0
-56 -57 31 0
-58 -31 59 0
-58 -59 31 0
-60 -31 61 0
-60 -61 31 0
-62 -63 65 0
-62 63 282 0
-63 64 0
-63 7 0
-64 -13 9 0
-64 -9 13 0
-65 -66 180 0
-65 66 282 0
-66 -67 79 0
-66 67 165 0
-67 68 76 0
-68 69 72 0
-69 -70 0
-7 -8 0
-70 -6 71 0
-70 -71 6 0
-72 -73 0
-73 -74 75 0
-73 -75 74 0
-76 -77 0
-77 -10 78 0
-77 -78 10 0
-79 -80 81 0
-79 80 98 0
-8 -10 9 0
-8 -9 10 0
-80 -13 6 0
-80 -6 13 0
-81 82 0
-81 96 0
-82 83 0
-82 96 0
-83 84 0
-83 96 0
-84 85 0
-84 96 0
-85 86 0
-85 96 0
-86 87 0
-86 96 0
-87 88 0
-87 96 0
-88 89 0
-88 96 0
-89 90 0
-89 97 0
-90 91 0
-90 96 0
-91 92 0
-91 96 0
-92 93 0
-92 96 0
-93 94 0
-93 96 0
-94 95 0
-94 96 0
-95 96 0
-96 -31 31 0
-97 -13 31 0
-97 -31 13 0
-98 -99 81 0
-98 99 100 0
-99 -13 74 0
-99 -74 13 0
1 -11 -282 0
1 -2 -11 0
1 0
1 2 -282 0
100 -101 -103 0
100 -103 -165 0
100 101 -165 0
101 -76 -102 0
102 -10 -13 0
102 10 13 0
103 -104 -81 0
103 -81 -127 0
103 104 -127 0
104 -105 -125 0
105 -106 -123 0
106 -107 -121 0
107 -108 -119 0
108 -109 -117 0
109 -110 -115 0
11 -12 -14 0
11 -14 -62 0
11 12 -62 0
110 -111 -113 0
111 -112 -31 0
111 112 31 0
113 -114 -31 0
113 114 31 0
115 -116 -31 0
115 116 31 0
117 -118 -31 0
117 118 31 0
119 -120 -31 0
119 120 31 0
12 -5 -13 0
12 5 13 0
121 -122 -31 0
121 122 31 0
123 -124 -31 0
123 124 31 0
125 -126 -13 0
125 126 13 0
127 -128 -161 0
128 -129 -157 0
129 -130 -153 0
13 0
130 -131 -149 0
131 -132 -145 0
132 -133 -141 0
133 -134 -137 0
134 -31 -135 0
134 31 135 0
135 -136 31 0
135 -31 136 0
136 -112 13 0
136 -13 112 0
137 -31 -138 0
137 31 138 0
138 -139 140 0
138 -140 139 0
139 -114 31 0
139 -31 114 0
14 -15 -60 0
140 -112 0
140 -31 0
141 -31 -142 0
141 31 142 0
142 -143 144 0
142 -144 143 0
143 -116 31 0
143 -31 116 0
144 -114 -140 0
145 -31 -146 0
145 31 146 0
146 -147 148 0
146 -148 147 0
147 -118 31 0
147 -31 118 0
148 -116 -144 0
149 -31 -150 0
149 31 150 0
15 -16 -58 0
150 -151 152 0
150 -152 151 0
151 -120 31 0
151 -31 120 0
152 -118 -148 0
153 -31 -154 0
153 31 154 0
154 -155 156 0
154 -156 155 0
155 -122 31 0
155 -31 122 0
156 -120 -152 0
157 -31 -158 0
157 31 158 0
158 -159 160 0
158 -160 159 0
159 -124 31 0
159 -31 124 0
16 -17 -56 0
160 -122 -156 0
161 -13 -162 0
161 13 162 0
162 -163 164 0
162 -164 163 0
163 -126 31 0
163 -31 126 0
164 -124 -160 0
165 -166 -179 0
166 -167 -178 0
167 -168 -177 0
168 -169 -176 0
169 -170 -175 0
17 -18 -54 0
170 -171 -174 0
171 -172 -173 0
172 -31 -112 0
172 31 112 0
173 -31 -114 0
173 31 114 0
174 -31 -116 0
174 31 116 0
175 -31 -118 0
175 31 118 0
176 -31 -120 0
176 31 120 0
177 -31 -122 0
177 31 122 0
178 -31 -124 0
178 31 124 0
179 -13 -126 0
179 13 126 0
18 -19 -52 0
180 -14 -183 0
180 -181 -14 0
180 181 -183 0
181 -182 -13 0
181 182 13 0
183 -184 -235 0
183 -67 -184 0
183 67 -235 0
184 -14 -185 0
184 -80 -14 0
184 80 -185 0
185 -14 -186 0
185 -99 -14 0
185 99 -186 0
186 -101 -187 0
186 -187 -235 0
186 101 -235 0
187 -104 -14 0
187 -14 -188 0
187 104 -188 0
188 -189 -233 0
189 -190 -231 0
19 -20 -50 0
190 -191 -229 0
191 -192 -227 0
192 -193 -225 0
193 -194 -223 0
194 -195 -221 0
195 -196 -219 0
196 -197 -217 0
197 -198 -215 0
198 -199 -213 0
199 -200 -211 0
2 -3 0
2 -7 0
20 -21 -48 0
200 -201 -209 0
201 -202 -207 0
202 -203 -205 0
203 -30 -204 0
203 30 204 0
205 -33 -206 0
205 33 206 0
207 -35 -208 0
207 35 208 0
209 -37 -210 0
209 37 210 0
21 -22 -46 0
211 -39 -212 0
211 39 212 0
213 -41 -214 0
213 41 214 0
215 -43 -216 0
215 43 216 0
217 -45 -218 0
217 45 218 0
219 -47 -220 0
219 47 220 0
22 -23 -44 0
221 -49 -222 0
221 49 222 0
223 -51 -224 0
223 51 224 0
225 -53 -226 0
225 53 226 0
227 -55 -228 0
227 55 228 0
229 -57 -230 0
229 57 230 0
23 -24 -42 0
231 -59 -232 0
231 59 232 0
233 -61 -234 0
233 61 234 0
235 -236 -280 0
236 -237 -278 0
237 -238 -276 0
238 -239 -274 0
239 -240 -272 0
24 -25 -40 0
240 -241 -270 0
241 -242 -268 0
242 -243 -266 0
243 -244 -264 0
244 -245 -262 0
245 -246 -260 0
246 -247 -258 0
247 -248 -256 0
248 -249 -254 0
249 -250 -252 0
25 -26 -38 0
250 -30 -251 0
250 30 251 0
252 -33 -253 0
252 33 253 0
254 -35 -255 0
254 35 255 0
256 -37 -257 0
256 37 257 0
258 -39 -259 0
258 39 259 0
26 -27 -36 0
260 -41 -261 0
260 41 261 0
262 -43 -263 0
262 43 263 0
264 -45 -265 0
264 45 265 0
266 -47 -267 0
266 47 267 0
268 -49 -269 0
268 49 269 0
27 -28 -34 0
270 -51 -271 0
270 51 271 0
272 -53 -273 0
272 53 273 0
274 -55 -275 0
274 55 275 0
276 -57 -277 0
276 57 277 0
278 -59 -279 0
278 59 279 0
28 -29 -32 0
280 -61 -281 0
280 61 281 0
282 -283 -327 0
283 -284 -325 0
284 -285 -323 0
285 -286 -321 0
286 -287 -319 0
287 -288 -317 0
288 -289 -315 0
289 -290 -313 0
29 -30 -31 0
29 30 31 0
290 -291 -311 0
291 -292 -309 0
292 -293 -307 0
293 -294 -305 0
294 -295 -303 0
295 -296 -301 0
296 -297 -299 0
297 -30 -298 0
297 30 298 0
299 -33 -300 0
299 33 300 0
3 4 0
301 -35 -302 0
301 35 302 0
303 -37 -304 0
303 37 304 0
305 -39 -306 0
305 39 306 0
307 -41 -308 0
307 41 308 0
309 -43 -310 0
309 43 310 0
311 -45 -312 0
311 45 312 0
313 -47 -314 0
313 47 314 0
315 -49 -316 0
315 49 316 0
317 -51 -318 0
317 51 318 0
319 -53 -320 0
319 53 320 0
32 -33 -31 0
32 33 31 0
321 -55 -322 0
321 55 322 0
323 -57 -324 0
323 57 324 0
325 -59 -326 0
325 59 326 0
327 -61 -328 0
327 61 328 0
34 -35 -31 0
34 35 31 0
36 -37 -31 0
36 37 31 0
38 -39 -31 0
38 39 31 0
4 -5 -6 0
4 5 6 0
40 -41 -31 0
40 41 31 0
42 -43 -31 0
42 43 31 0
44 -45 -31 0
44 45 31 0
46 -47 -31 0
46 47 31 0
48 -49 -31 0
48 49 31 0
50 -51 -31 0
50 51 31 0
52 -53 -31 0
52 53 31 0
54 -55 -31 0
54 55 31 0
56 -57 -31 0
56 57 31 0
58 -59 -31 0
58 59 31 0
60 -61 -31 0
60 61 31 0
62 -63 -65 0
62 -65 -282 0
62 63 -282 0
63 -7 -64 0
64 -9 -13 0
64 9 13 0
65 -180 -282 0
65 -66 -180 0
65 66 -282 0
66 -67 -79 0
66 -79 -165 0
66 67 -165 0
67 -68 0
67 -76 0
68 -69 0
68 -72 0
69 70 0
7 8 0
70 -6 -71 0
70 6 71 0
72 73 0
73 -74 -75 0
73 74 75 0
76 77 0
77 -10 -78 0
77 10 78 0
79 -80 -81 0
79 -81 -98 0
79 80 -98 0
8 -9 -10 0
8 9 10 0
80 -6 -13 0
80 6 13 0
81 -82 -96 0
82 -83 -96 0
83 -84 -96 0
84 -85 -96 0
85 -86 -96 0
86 -87 -96 0
87 -88 -96 0
88 -89 -96 0
89 -90 -97 0
90 -91 -96 0
91 -92 -96 0
92 -93 -96 0
93 -94 -96 0
94 -95 -96 0
95 -96 -96 0
96 -31 -31 0
96 31 31 0
97 -13 -31 0
97 13 31 0
98 -81 -100 0
98 -99 -81 0
98 99 -100 0
99 -74 -13 0
99 74 13 0
